Algorithm:hc
Number of runs:30
Number of iterations:1024
Number of patterns:10
Name of file:p01_c.txt
208.40
225.97
239.80
239.80
248.20
248.20
248.20
248.20
248.20
249.83
249.83
249.83
249.83
249.83
249.83
249.83
249.83
249.83
249.83
249.83
249.83
249.83
249.83
249.83
249.83
249.83
249.83
249.83
249.83
249.83
249.83
249.83
249.83
249.83
249.83
249.83
249.83
249.83
249.83
249.83
249.83
249.83
249.83
249.83
249.83
249.83
249.83
249.83
249.83
249.83
249.83
249.83
249.83
249.83
249.83
249.83
249.83
249.83
249.83
249.83
249.83
249.83
249.83
249.83
249.83
249.83
249.83
249.83
249.83
249.83
249.83
249.83
249.83
249.83
249.83
249.83
249.83
249.83
249.83
249.83
249.83
249.83
249.83
249.83
249.83
249.83
249.83
249.83
249.83
249.83
249.83
249.83
249.83
249.83
249.83
249.83
249.83
249.83
249.83
249.83
249.83
249.83
249.83
249.83
249.83
249.83
249.83
249.83
249.83
249.83
249.83
249.83
249.83
249.83
249.83
249.83
249.83
249.83
249.83
249.83
249.83
249.83
249.83
249.83
249.83
249.83
249.83
249.83
249.83
249.83
249.83
249.83
249.83
249.83
249.83
249.83
249.83
249.83
249.83
249.83
249.83
249.83
249.83
249.83
249.83
249.83
249.83
249.83
249.83
249.83
249.83
249.83
249.83
249.83
249.83
249.83
249.83
249.83
249.83
249.83
249.83
249.83
249.83
249.83
249.83
249.83
249.83
249.83
249.83
249.83
249.83
249.83
249.83
249.83
249.83
249.83
249.83
249.83
249.83
249.83
249.83
249.83
249.83
249.83
249.83
249.83
249.83
249.83
249.83
249.83
249.83
249.83
249.83
249.83
249.83
249.83
249.83
249.83
249.83
249.83
249.83
249.83
249.83
249.83
249.83
249.83
249.83
249.83
249.83
249.83
249.83
249.83
249.83
249.83
249.83
249.83
249.83
249.83
249.83
249.83
249.83
249.83
249.83
249.83
249.83
249.83
249.83
249.83
249.83
249.83
249.83
249.83
249.83
249.83
249.83
249.83
249.83
249.83
249.83
249.83
249.83
249.83
249.83
249.83
249.83
249.83
249.83
249.83
249.83
249.83
249.83
249.83
249.83
249.83
249.83
249.83
249.83
249.83
249.83
249.83
249.83
249.83
249.83
249.83
249.83
249.83
249.83
249.83
249.83
249.83
249.83
249.83
249.83
249.83
249.83
249.83
249.83
249.83
249.83
249.83
249.83
249.83
249.83
249.83
249.83
249.83
249.83
249.83
249.83
249.83
249.83
249.83
249.83
249.83
249.83
249.83
249.83
249.83
249.83
249.83
249.83
249.83
249.83
249.83
249.83
249.83
249.83
249.83
249.83
249.83
249.83
249.83
249.83
249.83
249.83
249.83
249.83
249.83
249.83
249.83
249.83
249.83
249.83
249.83
249.83
249.83
249.83
249.83
249.83
249.83
249.83
249.83
249.83
249.83
249.83
249.83
249.83
249.83
249.83
249.83
249.83
249.83
249.83
249.83
249.83
249.83
249.83
249.83
249.83
249.83
249.83
249.83
249.83
249.83
249.83
249.83
249.83
249.83
249.83
249.83
249.83
249.83
249.83
249.83
249.83
249.83
249.83
249.83
249.83
249.83
249.83
249.83
249.83
249.83
249.83
249.83
249.83
249.83
249.83
249.83
249.83
249.83
249.83
249.83
249.83
249.83
249.83
249.83
249.83
249.83
249.83
249.83
249.83
249.83
249.83
249.83
249.83
249.83
249.83
249.83
249.83
249.83
249.83
249.83
249.83
249.83
249.83
249.83
249.83
249.83
249.83
249.83
249.83
249.83
249.83
249.83
249.83
249.83
249.83
249.83
249.83
249.83
249.83
249.83
249.83
249.83
249.83
249.83
249.83
249.83
249.83
249.83
249.83
249.83
249.83
249.83
249.83
249.83
249.83
249.83
249.83
249.83
249.83
249.83
249.83
249.83
249.83
249.83
249.83
249.83
249.83
249.83
249.83
249.83
249.83
249.83
249.83
249.83
249.83
249.83
249.83
249.83
249.83
249.83
249.83
249.83
249.83
249.83
249.83
249.83
249.83
249.83
249.83
249.83
249.83
249.83
249.83
249.83
249.83
249.83
249.83
249.83
249.83
249.83
249.83
249.83
249.83
249.83
249.83
249.83
249.83
249.83
249.83
249.83
249.83
249.83
249.83
249.83
249.83
249.83
249.83
249.83
249.83
249.83
249.83
249.83
249.83
249.83
249.83
249.83
249.83
249.83
249.83
249.83
249.83
249.83
249.83
249.83
249.83
249.83
249.83
249.83
249.83
249.83
249.83
249.83
249.83
249.83
249.83
249.83
249.83
249.83
249.83
249.83
249.83
249.83
249.83
249.83
249.83
249.83
249.83
249.83
249.83
249.83
249.83
249.83
249.83
249.83
249.83
249.83
249.83
249.83
249.83
249.83
249.83
249.83
249.83
249.83
249.83
249.83
249.83
249.83
249.83
249.83
249.83
249.83
249.83
249.83
249.83
249.83
249.83
249.83
249.83
249.83
249.83
249.83
249.83
249.83
249.83
249.83
249.83
249.83
249.83
249.83
249.83
249.83
249.83
249.83
249.83
249.83
249.83
249.83
249.83
249.83
249.83
249.83
249.83
249.83
249.83
249.83
249.83
249.83
249.83
249.83
249.83
249.83
249.83
249.83
249.83
249.83
249.83
249.83
249.83
249.83
249.83
249.83
249.83
249.83
249.83
249.83
249.83
249.83
249.83
249.83
249.83
249.83
249.83
249.83
249.83
249.83
249.83
249.83
249.83
249.83
249.83
249.83
249.83
249.83
249.83
249.83
249.83
249.83
249.83
249.83
249.83
249.83
249.83
249.83
249.83
249.83
249.83
249.83
249.83
249.83
249.83
249.83
249.83
249.83
249.83
249.83
249.83
249.83
249.83
249.83
249.83
249.83
249.83
249.83
249.83
249.83
249.83
249.83
249.83
249.83
249.83
249.83
249.83
249.83
249.83
249.83
249.83
249.83
249.83
249.83
249.83
249.83
249.83
249.83
249.83
249.83
249.83
249.83
249.83
249.83
249.83
249.83
249.83
249.83
249.83
249.83
249.83
249.83
249.83
249.83
249.83
249.83
249.83
249.83
249.83
249.83
249.83
249.83
249.83
249.83
249.83
249.83
249.83
249.83
249.83
249.83
249.83
249.83
249.83
249.83
249.83
249.83
249.83
249.83
249.83
249.83
249.83
249.83
249.83
249.83
249.83
249.83
249.83
249.83
249.83
249.83
249.83
249.83
249.83
249.83
249.83
249.83
249.83
249.83
249.83
249.83
249.83
249.83
249.83
249.83
249.83
249.83
249.83
249.83
249.83
249.83
249.83
249.83
249.83
249.83
249.83
249.83
249.83
249.83
249.83
249.83
249.83
249.83
249.83
249.83
249.83
249.83
249.83
249.83
249.83
249.83
249.83
249.83
249.83
249.83
249.83
249.83
249.83
249.83
249.83
249.83
249.83
249.83
249.83
249.83
249.83
249.83
249.83
249.83
249.83
249.83
249.83
249.83
249.83
249.83
249.83
249.83
249.83
249.83
249.83
249.83
249.83
249.83
249.83
249.83
249.83
249.83
249.83
249.83
249.83
249.83
249.83
249.83
249.83
249.83
249.83
249.83
249.83
249.83
249.83
249.83
249.83
249.83
249.83
249.83
249.83
249.83
249.83
249.83
249.83
249.83
249.83
249.83
249.83
249.83
249.83
249.83
249.83
249.83
249.83
249.83
249.83
249.83
249.83
249.83
249.83
249.83
249.83
249.83
249.83
249.83
249.83
249.83
249.83
249.83
249.83
249.83
249.83
249.83
249.83
249.83
249.83
249.83
249.83
249.83
249.83
249.83
249.83
249.83
249.83
249.83
249.83
249.83
249.83
249.83
249.83
249.83
249.83
249.83
249.83
249.83
249.83
249.83
249.83
249.83
249.83
249.83
249.83
249.83
249.83
249.83
249.83
249.83
249.83
249.83
249.83
249.83
249.83
249.83
249.83
249.83
249.83
249.83
249.83
249.83
249.83
249.83
249.83
249.83
249.83
249.83
249.83
249.83
249.83
249.83
249.83
249.83
249.83
249.83
249.83
249.83
249.83
249.83
249.83
249.83
249.83
249.83
249.83
249.83
249.83
249.83
249.83
249.83
249.83
249.83
249.83
249.83
249.83
249.83
249.83
249.83
249.83
249.83
249.83
249.83
249.83
249.83
249.83
249.83
249.83
249.83
249.83
249.83
249.83
249.83
249.83
249.83
249.83
249.83
249.83
249.83
249.83
249.83
249.83
249.83
249.83
249.83
249.83
249.83
249.83
249.83
249.83
249.83
249.83
249.83
249.83
249.83
249.83
249.83
249.83
249.83
249.83
249.83
249.83
249.83
249.83
249.83
249.83
249.83
249.83
249.83
249.83
249.83
249.83
249.83
249.83
249.83
249.83
249.83
249.83
249.83
249.83
249.83
249.83
249.83
249.83
249.83
249.83
249.83
249.83
249.83
249.83
249.83
249.83
249.83
final result:
1110000001
0.0380.sec
